c E(2,1) E(1,2) E(0,2) E(2,0) E(1,0) E(0,1)
c 1 2 3 4 5 6
p cnf 6 24
6 3 0
5 2 0
4 1 0
6 -6 0
3 -3 0
5 -5 0
2 -2 0
4 -4 0
1 -1 0
-6 -5 0
-3 -4 0
-2 -1 0
6 5 -6 0
6 5 -5 0
3 4 -3 0
3 4 -4 0
2 1 -2 0
2 1 -1 0
6 -6 -5 0
3 -3 -4 0
5 -6 -5 0
2 -2 -1 0
4 -3 -4 0
1 -2 -1 0
